# Define simulation box
units si
dimension 3
atom_style granular
boundary f f f
atom_modify map array

# Set particle properties
variable radius1 equal 0.001
variable radius2 equal 0.0015
variable density1 equal 2000
variable density2 equal 2500

# Create particles
region box block -0.1 0.1 -0.1 0.1 -0.1 0.1
create_box 2 box
lattice fcc 0.01
create_atoms 1 box
set group all diameter ${radius1}
mass * ${density1}

# Add funnel-shaped hopper
region funnel cone -0.05 -0.05 0 0 0.05 0 0.05
region funnel2 cone -0.05 -0.05 -0.05 0 0.05 -0.05 0.05
create_box 2 funnel2
create_atoms 2 funnel2
set group 2 diameter ${radius2}
mass * ${density2}
group funnel region funnel
group funnel2 region funnel2

# Define force fields
pair_style gran/hooke/history 100000 1e-4
pair_coeff * *

# Define simulation parameters
variable dt equal 1e-5
variable tstop equal 1
fix 1 all nve/limit 0.01
fix 2 all enforce2d
fix 3 all gravity 9.81 vector 0 0 -1
fix 4 all wall/gran 10000.0 100.0 0.1 0.0 0.0 1.0
fix 5 funnel2 move linear 0.01 0.0 0.0 units box
fix 6 funnel2 setforce 0.0 0.0 0.0
thermo_style custom step time atoms
thermo 1000
timestep ${dt}




shell 	mkdir post



# Run simulation
dump 1 all custom 1000 dump.*.vtk id type x y z vx vy vz omega radius
run ${tstop}/(${dt}*1000)
