###Header for General commands###

#Simulation of particles
atom_style	granular		        
boundary	f f f			        #fixed boundaries -> particles will be deleted if leaving the simulation box
units		si
communicate	single vel yes	#default

newton		off				#default

###System variables###

#Definition of boundaries [m]
variable xmin equal -0.2
variable xmax equal 0.2

variable ymin equal -0.3
variable ymax equal 0.3

variable zmin equal -0.3
variable zmax equal 0.5

#Definition of the timestep
#timestep = 0.0001 second; Each iteration step represents 0.0001 seconds.
variable dt equal 1e-4			


###Specific variables for current simulation####

variable natoms equal 2 	        #1 -> particle #2->funnel, screw, and screw_inv

#Variable for material properties#

#Young Modulus
#soft_particles yes
variable	youngModulusCon 	equal 	5e6	#N/mm² (30 to 50Gpa)
variable	youngModulus    	equal 	5e6	#N/mm² (30 to 50Gpa)

variable	youngModulusAcc 	equal 	2e4	#N/mm² (10Gpa)

#Poission ratio
variable 	poissionCon1	equal	0.3
variable 	poissionCon2	equal	0.3
variable 	poissionAcc	equal	0.25

#variable for contact properties#

#coefficient of restitution
variable	CoR11	equal	0.6
variable	CoR12	equal	0.6	
variable	CoR21	equal	0.6
variable	CoR22	equal	0.6

#sliding friction coefficient
variable	sf11	equal	0.5
variable	sf12	equal	0.5
variable	sf21	equal	0.5
variable	sf22	equal	0.5

#rolling friction coefficient
variable	rf11	equal	0.05
variable	rf12	equal	0.05
variable	rf21	equal	0.05
variable	rf22	equal	0.05


#Variable for particle##

#Number of particle radius
variable	nradii	equal	2

#Concrete particles 

variable	radiusCon1	equal	0.004	#m Fine aggregates
variable	radiusCon2	equal	0.008	#m Coarse aggregates

variable	frac1	        equal	0.7		#70%
variable	frac2	        equal	0.3		#30%

variable	densityCon	equal	2700	        #kg/m³ #aggregate desnsity


#Accelerator particles 

variable	radiusAcc	equal	0.002	        #m 
variable	densityAcc	equal	1200	        #kg/m³ 

#filling parameters#

##define the flowrate
variable        timeFactor	equal	10.0				#seconds    
variable        filltime	equal	30.0				#seconds
variable        fillVoulume     equal   2                               #Liter

#fill concrete
variable	fillmass	equal	${densityCon}*(${fillVoulume}/1000)	#kg
variable	fillmassrate	equal	${fillmass}/${filltime}	                #kg/s   

#fill concrete
variable        factor          equal   0.1
variable	fillmassAcc	equal	${densityAcc}*${fillmass}*${factor}  #kg
variable	fillmassrateAcc	equal	${fillmassAcc}/${filltime}	        #kg

variable	fillsteps	equal	${filltime}/${dt}		#Transform time to iteration steps

## define the speed
# rpm = roataion per minute
# ex. 60 rpm = 60 rev/min = 1 rev/s
variable        screwSpeed      equal   80.0                             #rpm
variable        screwPeriod     equal   ${screwSpeed}/60.0               #s/rev ,period of the srew rotation (time for 1 rotation)



####settle time####
variable	settletime	equal	1.0                             #second
variable	settlesteps	equal	${settletime}/${dt}		#Transform time to iteration steps


####mixing time####
variable	mixingTime	equal	30.0                              #sec
variable	mixingSteps	equal	${mixingTime}/${dt}		#Transform time to iteration steps


####Definition of simulationbox####
region		reg block ${xmin} ${xmax} ${ymin} ${ymax} ${zmin} ${zmax} units box
create_box	2 reg
neighbor	0.002 bin		#default
neigh_modify	delay 0		        #default


####Definition of the contact models####

pair_style gran model hertz tangential history rolling_friction epsd2	#contact model
pair_coeff	* *				#default
timestep ${dt}

fix	integrator all nve/sphere			#default
fix	gravi all gravity 9.81 vector 0.0 0.0 -1.0	#gravity of 9.81 m/s² in negative z direction



###efinition of Material properties####

fix 	m1 all property/global youngsModulus peratomtype ${youngModulusCon} ${youngModulus}
fix 	m2 all property/global poissonsRatio peratomtype ${poissionCon1} ${poissionAcc}
fix 	m3 all property/global coefficientRestitution peratomtypepair ${natoms} ${CoR11} ${CoR12} ${CoR21} ${CoR22}
fix 	m4 all property/global coefficientFriction peratomtypepair ${natoms} ${sf11} ${sf12} ${sf21} ${sf22}
fix 	m5 all property/global coefficientRollingFriction peratomtypepair ${natoms} ${rf11} ${rf12} ${rf21} ${rf22}


###Generation and Loading of the Geometry####

#load mesh from STL file. Type 2 for geometry. Scale down to transform mm to meters
fix	funnel 		all mesh/surface file meshes/funnel.stl type 2 scale 0.001 

fix	screw 		all mesh/surface file meshes/impeller_hexical_1.stl type 2 scale 0.001 curvature 1e-5 curvature_tolerant yes
fix	screw_inv 	all mesh/surface file meshes/impeller_hexical_inver_2.stl type 2 scale 0.001 curvature 1e-5 curvature_tolerant yes

fix	walls 		all wall/gran model hertz tangential history rolling_friction epsd2 mesh n_meshes 3 meshes funnel screw screw_inv



####Generation and Insertion of the particles####

fix	pts1 all particletemplate/sphere 10487 atom_type 1 density constant ${densityCon} radius constant ${radiusCon1}	
#fix	pts2 all particletemplate/sphere 11887 atom_type 1 density constant ${densityCon} radius constant ${radiusCon2}	
fix	pts3 all particletemplate/sphere 10487 atom_type 1 density constant ${densityAcc} radius constant ${radiusAcc}	

#fix 	pdd1 all particledistribution/discrete 32452867 ${nradii} pts1 ${frac1} pts2 ${frac2} 

fix 	pdd1 all particledistribution/discrete 32452867 1 pts1 1.0
fix 	pdd2 all particledistribution/discrete 32452843 1 pts3 1.0

fix	ins_mesh_con all mesh/surface/planar file meshes/insertion_con_simple_top.stl  type 1 scale 0.001 
fix	ins_mesh_acc all mesh/surface/planar file meshes/insertion_acc.stl  type 1 scale 0.001 

fix 	ins_con all insert/stream seed 86028121 distributiontemplate pdd1 &
        mass ${fillmass} massrate ${fillmassrate} overlapcheck yes all_in yes vel constant  0  0 -0.5 &
        insertion_face ins_mesh_con extrude_length 0.08

fix 	ins_acc all insert/stream seed 86028121 distributiontemplate pdd2 &
        mass ${fillmassAcc} massrate ${fillmassrateAcc} overlapcheck yes all_in yes vel constant 0.4 0.3  0  &
        insertion_face ins_mesh_acc extrude_length 0.02
        
####Dumping of the data for post-processing to visualize####

shell 	mkdir post
shell   mkdir simu

#Definition of the dumptime

variable dumptime equal 0.05	                        # Every 0.05 s 1 image 
variable dumpstep equal ${dumptime}/${dt}	        #Transform to iteration steps


####Run####

#Run simulation iteration==1 and dump the file
run    	1
dump   	dmpparticle all custom/vtk ${dumpstep} post/particles_*.vtk id type type x y z ix iy iz vx vy vz fx fy fz omegax omegay omegaz radius 
dump   	dumpfunnel all mesh/stl ${dumpstep} post/funnel*.stl funnel
dump	dumpscrew all mesh/stl ${dumpstep} post/screw*.stl screw screw_inv

#Run simulation

run     ${fillsteps}/100

#run     ${settlesteps}
fix	Movescrew  all move/mesh mesh screw rotate origin 0 -0.045 0 axis 0 0 -1 period ${screwPeriod} 
fix	Movescrew_inv  all move/mesh mesh screw_inv rotate origin 0 0.045 0 axis 0 0 1 period ${screwPeriod} 

run     ${mixingSteps}

unfix	Movescrew
unfix	Movescrew_inv

write_restart resrart/reactor.restart
